p tdp 34 63
12 31
14 33
18 32
20 27
4 22
1 15
14 25
7 31
8 19
16 30
3 19
6 34
9 17
11 21
18 29
9 20
24 26
13 23
9 16
1 7
18 28
5 24
4 17
6 28
2 11
13 16
25 26
3 10
3 11
6 10
20 31
9 10
3 5
13 17
29 34
2 23
1 23
23 28
24 28
20 24
10 17
1 26
11 28
11 22
13 25
2 22
6 24
11 30
1 32
22 33
10 11
19 32
2 15
5 25
8 21
3 29
10 26
19 23
4 20
31 32
21 31
2 29
12 23
